NAME : in_house_7_13
TYPE : TSP
DIMENSION : 7
EDGE_WEIGHT_TYPE : EXPLICIT
EDGE_WEIGHT_FORMAT : UPPER_ROW
COMMENT : INVERSION_SHIFT=2
EDGE_WEIGHT_SECTION
24
31
11
23
10
11
39
5
43
46
18
35
17
20
8
29
15
30
20
36
40
